
Gurobi 9.5.0 (linux64) logging started Thu Dec  7 23:00:09 2023

Set parameter LogFile to value "/lustre1/scratch/348/vsc34888/JointResearch/05.Models/06.Benchmarking/B.Operation_cost/RTS24_mod1_ByStages_nc300/openStarNet_RTS24_mod1_ByStages_nc300.log"
Set parameter Method to value 2
Set parameter MIPFocus to value 1
Set parameter Presolve to value 2
Set parameter RINS to value 100
Set parameter MIPGap to value 0.01
Set parameter Threads to value 36
Set parameter TimeLimit to value 259200
Set parameter IterationLimit to value 760000000
Gurobi Optimizer version 9.5.0 build v9.5.0rc5 (linux64)
Thread count: 36 physical cores, 36 logical processors, using up to 36 threads
Optimize a model with 117863 rows, 79617 columns and 321515 nonzeros
Model fingerprint: 0xc91daa9d
Variable types: 79596 continuous, 21 integer (21 binary)
Coefficient statistics:
  Matrix range     [2e-03, 3e+02]
  Objective range  [1e+00, 1e+00]
  Bounds range     [3e-05, 2e+00]
  RHS range        [3e-05, 2e+00]
Presolve removed 70232 rows and 40448 columns
Presolve time: 0.47s
Presolved: 47631 rows, 39169 columns, 172089 nonzeros
Variable types: 39148 continuous, 21 integer (21 binary)
Root relaxation presolved: 47631 rows, 39169 columns, 172089 nonzeros

Root barrier log...

Ordering time: 0.01s

Barrier statistics:
 Dense cols : 21
 AA' NZ     : 3.197e+05
 Factor NZ  : 9.308e+05 (roughly 40 MB of memory)
 Factor Ops : 2.133e+07 (less than 1 second per iteration)
 Threads    : 35

                  Objective                Residual
Iter       Primal          Dual         Primal    Dual     Compl     Time
   0   1.72956062e+06 -1.48866760e+08  5.44e+00 1.05e+02  3.83e+03     1s
   1   2.57937175e+05 -3.90881122e+07  7.44e-01 1.39e-08  5.44e+02     1s
   2   9.73696067e+04 -1.84173971e+07  2.10e-01 6.30e-09  2.00e+02     1s
   3   3.89288789e+04 -1.96147299e+06  8.71e-03 2.55e-09  1.84e+01     1s
   4   1.89331109e+04 -2.80948343e+05  3.04e-04 4.92e-10  2.70e+00     1s
   5   6.41303909e+03 -6.01241502e+04  4.13e-05 7.41e-11  6.00e-01     1s
   6   1.47885629e+03 -1.16469328e+04  3.40e-06 1.19e-11  1.18e-01     1s
   7   5.91638992e+02 -3.59194067e+03  1.47e-07 3.63e-12  3.77e-02     1s
   8   3.50340656e+02 -1.01611932e+03  6.43e-08 9.95e-13  1.23e-02     1s
   9   2.48980995e+02 -3.97497116e+02  3.56e-08 1.36e-12  5.82e-03     1s
  10   1.41726775e+02 -1.30374412e+02  1.13e-08 9.09e-13  2.45e-03     1s
  11   1.06001375e+02 -2.20526325e+01  5.49e-09 9.09e-13  1.15e-03     1s
  12   9.36153382e+01  3.29157088e+01  3.72e-09 9.09e-13  5.47e-04     1s
  13   8.59447940e+01  4.27351509e+01  2.64e-09 9.09e-13  3.89e-04     1s
  14   8.50192983e+01  4.71036664e+01  2.48e-09 4.55e-13  3.42e-04     1s
  15   8.00829063e+01  4.93790864e+01  1.77e-09 9.09e-13  2.77e-04     1s
  16   7.67851579e+01  5.63520850e+01  1.30e-09 9.09e-13  1.84e-04     1s
  17   7.47205637e+01  5.95191786e+01  1.03e-09 4.55e-13  1.37e-04     1s
  18   7.25605992e+01  6.16194740e+01  7.27e-10 4.55e-13  9.86e-05     1s
  19   7.15105223e+01  6.19473235e+01  5.97e-10 4.55e-13  8.62e-05     1s
  20   7.10286578e+01  6.30224806e+01  5.33e-10 9.09e-13  7.21e-05     1s
  21   7.07288661e+01  6.42282632e+01  4.91e-10 4.55e-13  5.86e-05     1s
  22   6.98940023e+01  6.52367749e+01  3.60e-10 4.55e-13  4.20e-05     1s
  23   6.91023081e+01  6.58149032e+01  2.24e-10 4.55e-13  2.96e-05     1s
  24   6.87349602e+01  6.62217630e+01  1.65e-10 4.55e-13  2.26e-05     1s
  25   6.84245226e+01  6.65572026e+01  1.19e-10 4.55e-13  1.68e-05     1s
  26   6.82711245e+01  6.69399083e+01  9.23e-11 9.09e-13  1.20e-05     1s
  27   6.80386283e+01  6.70251472e+01  5.03e-11 4.55e-13  9.13e-06     1s
  28   6.80138124e+01  6.72948146e+01  4.66e-11 9.09e-13  6.48e-06     1s
  29   6.79403572e+01  6.74773702e+01  3.66e-11 4.55e-13  4.17e-06     1s
  30   6.78587523e+01  6.76117391e+01  4.68e-11 4.55e-13  2.23e-06     1s
  31   6.78326206e+01  6.76554968e+01  5.97e-11 4.55e-13  1.60e-06     1s
  32   6.77951205e+01  6.77118214e+01  7.28e-10 4.55e-13  7.51e-07     2s
  33   6.77876353e+01  6.77449585e+01  5.20e-10 9.09e-13  3.85e-07     2s
  34   6.77838280e+01  6.77539421e+01  3.75e-10 4.55e-13  2.69e-07     2s
  35   6.77740562e+01  6.77597116e+01  3.56e-10 4.55e-13  1.29e-07     2s
  36   6.77709240e+01  6.77645364e+01  5.10e-10 9.09e-13  5.76e-08     2s
  37   6.77693502e+01  6.77659574e+01  3.25e-10 4.55e-13  3.06e-08     2s
  38   6.77683521e+01  6.77668696e+01  3.13e-10 9.09e-13  1.34e-08     2s
  39   6.77678725e+01  6.77670252e+01  2.79e-10 9.09e-13  7.63e-09     2s
  40   6.77678182e+01  6.77675757e+01  2.81e-10 4.23e-12  2.18e-09     2s
  41   6.77676460e+01  6.77675925e+01  1.67e-09 2.98e-12  4.82e-10     2s
  42   6.77676453e+01  6.77676232e+01  1.37e-09 1.74e-11  2.00e-10     2s
  43   6.77676429e+01  6.77676429e+01  4.69e-10 9.09e-13  2.09e-13     2s

Barrier solved model in 43 iterations and 1.75 seconds (1.50 work units)
Optimal objective 6.77676429e+01


Root relaxation: objective 6.776764e+01, 7891 iterations, 1.55 seconds (1.26 work units)

    Nodes    |    Current Node    |     Objective Bounds      |     Work
 Expl Unexpl |  Obj  Depth IntInf | Incumbent    BestBd   Gap | It/Node Time

     0     0   67.76764    0   19          -   67.76764      -     -    2s
H    0     0                     112.8025225   67.76764  39.9%     -    3s
     0     0   68.88457    0   15  112.80252   68.88457  38.9%     -    5s
H    0     0                     108.9048439   68.88457  36.7%     -    6s
     0     0   68.94949    0   12  108.90484   68.94949  36.7%     -    7s
H    0     0                     104.3448075   68.94963  33.9%     -    7s
     0     0   68.94963    0   12  104.34481   68.94963  33.9%     -    7s
     0     0   68.94963    0   12  104.34481   68.94963  33.9%     -    7s
     0     0   69.16670    0   14  104.34481   69.16670  33.7%     -    9s
     0     0   69.19452    0   12  104.34481   69.19452  33.7%     -   11s
     0     0   69.20893    0   13  104.34481   69.20893  33.7%     -   11s
     0     0   69.21278    0   13  104.34481   69.21278  33.7%     -   11s
     0     0   69.21338    0   13  104.34481   69.21338  33.7%     -   11s
     0     0   69.21344    0   13  104.34481   69.21344  33.7%     -   11s
H    0     0                      98.1752075   69.26124  29.5%     -   13s
     0     0   69.26124    0   14   98.17521   69.26124  29.5%     -   13s
     0     0   69.26392    0   14   98.17521   69.26392  29.4%     -   14s
     0     0   69.28072    0   14   98.17521   69.28072  29.4%     -   14s
     0     0   69.28140    0   14   98.17521   69.28140  29.4%     -   15s
     0     0   69.28140    0   14   98.17521   69.28140  29.4%     -   15s
     0     0   69.28992    0   14   98.17521   69.28992  29.4%     -   16s
H    0     0                      94.4364573   69.29073  26.6%     -   16s
     0     0   69.29073    0   14   94.43646   69.29073  26.6%     -   16s
     0     0   69.29141    0   14   94.43646   69.29141  26.6%     -   17s
     0     0   69.29141    0   14   94.43646   69.29141  26.6%     -   17s
     0     0   69.29291    0   14   94.43646   69.29291  26.6%     -   20s
H    0     0                      85.8555451   69.29291  19.3%     -  133s
     0     2   69.29291    0   14   85.85555   69.29291  19.3%     -  134s
     1     4   69.36859    1   13   85.85555   69.29607  19.3%  1774  136s
    15    32   70.69084    4   13   85.85555   70.69084  17.7%  2740  141s
    63    84   73.08075    6   14   85.85555   70.76171  17.6%  2321  152s
    99   110   74.34884    7   13   85.85555   72.87511  15.1%  2270  181s
   171   149   78.46213    8   13   85.85555   73.09569  14.9%  2151  186s
   256   167     cutoff    9        85.85555   73.09569  14.9%  1918  200s
   355   207     cutoff   11        85.85555   73.09569  14.9%  1804  206s
   463   232   81.96979   10   11   85.85555   73.09569  14.9%  1742  211s
   589   252   83.39961   12    9   85.85555   73.09569  14.9%  1662  217s
   665   258     cutoff   12        85.85555   73.09569  14.9%  1610  220s
   826   266     cutoff   13        85.85555   73.09569  14.9%  1516  226s
   995   271   84.02521   13    8   85.85555   73.09569  14.9%  1465  334s
  1090   280   84.20089   14    7   85.85555   73.09569  14.9%  1418  337s
  1184   273     cutoff   15        85.85555   74.31673  13.4%  1408  341s
  1420   272   83.31131   10   10   85.85555   74.31673  13.4%  1344  347s
  1538   272     cutoff   11        85.85555   74.31673  13.4%  1322  351s
  1807   214   85.20412   14    7   85.85555   77.25807  10.0%  1272  357s
  1951   162     cutoff    9        85.85555   77.25807  10.0%  1256  361s
  2308    50   81.88591    8   13   85.85555   79.24761  7.70%  1174  367s
  2549    18   81.55668   10   11   85.85555   79.32332  7.61%  1120  372s
  2615    10   83.39279   10   11   85.85555   81.39031  5.20%  1120  376s

Cutting planes:
  Gomory: 1
  Implied bound: 9
  MIR: 1270
  Relax-and-lift: 159

Explored 2706 nodes (3006407 simplex iterations) in 379.01 seconds (625.32 work units)
Thread count was 36 (of 36 available processors)

Solution count 6: 85.8555 94.4365 98.1752 ... 112.803

Optimal solution found (tolerance 1.00e-02)
Best objective 8.585554512994e+01, best bound 8.585554512994e+01, gap 0.0000%

Gurobi 9.5.0 (linux64) logging started Thu Dec  7 23:07:14 2023

Set parameter LogFile to value "/lustre1/scratch/348/vsc34888/JointResearch/05.Models/06.Benchmarking/B.Operation_cost/RTS24_mod1_ByStages_nc300/openStarNet_RTS24_mod1_ByStages_nc300.log"
Set parameter Method to value 2
Set parameter MIPFocus to value 1
Set parameter Presolve to value 2
Set parameter RINS to value 100
Set parameter MIPGap to value 0.01
Set parameter Threads to value 36
Set parameter TimeLimit to value 259200
Set parameter IterationLimit to value 760000000
No parameters matching 'relax_integrality' found
Gurobi Optimizer version 9.5.0 build v9.5.0rc5 (linux64)
Thread count: 36 physical cores, 36 logical processors, using up to 36 threads
Optimize a model with 117863 rows, 79596 columns and 293606 nonzeros
Model fingerprint: 0x87280ba0
Coefficient statistics:
  Matrix range     [2e-03, 3e+02]
  Objective range  [1e+00, 1e+00]
  Bounds range     [3e-05, 2e+00]
  RHS range        [3e-05, 2e+01]
Presolve removed 98898 rows and 45097 columns
Presolve time: 0.15s
Presolved: 18965 rows, 34831 columns, 84782 nonzeros

Ordering time: 0.00s

Barrier statistics:
 AA' NZ     : 4.604e+04
 Factor NZ  : 1.635e+05 (roughly 18 MB of memory)
 Factor Ops : 2.159e+06 (less than 1 second per iteration)
 Threads    : 36

                  Objective                Residual
Iter       Primal          Dual         Primal    Dual     Compl     Time
   0   9.97943316e+06 -7.97749096e+07  5.46e+01 4.94e+01  2.51e+04     0s
   1   5.14835448e+05 -6.16567915e+07  2.44e+00 2.34e-12  2.01e+03     0s
   2   1.24697208e+05 -1.30097149e+07  4.68e-01 7.56e-12  3.29e+02     0s
   3   5.45780117e+04 -2.13362377e+06  3.59e-02 3.98e-12  4.07e+01     0s
   4   3.43704949e+04 -7.35921356e+05  5.02e-03 1.82e-12  1.33e+01     0s
   5   1.69838004e+04 -2.26967368e+05  6.87e-05 9.98e-13  4.15e+00     0s
   6   6.00084601e+03 -4.33356864e+04  5.71e-06 6.82e-13  8.39e-01     0s
   7   1.67110284e+03 -9.27201404e+03  6.15e-07 4.55e-13  1.86e-01     0s
   8   6.29240138e+02 -3.16256374e+03  1.46e-08 4.55e-13  6.45e-02     0s
   9   3.24867477e+02 -8.41551099e+02  9.51e-10 4.55e-13  1.98e-02     0s
  10   2.14677263e+02 -2.84332603e+02  3.59e-10 9.09e-13  8.49e-03     0s
  11   1.27797257e+02 -5.40517897e+01  7.85e-11 4.55e-13  3.09e-03     0s
  12   1.01272766e+02  5.17988839e+01  2.34e-11 4.55e-13  8.41e-04     0s
  13   9.24048643e+01  7.82748836e+01  9.45e-12 4.55e-13  2.40e-04     0s
  14   8.86844009e+01  8.31868777e+01  3.04e-11 4.55e-13  9.35e-05     0s
  15   8.69447945e+01  8.46684930e+01  1.34e-10 4.55e-13  3.87e-05     0s
  16   8.62421671e+01  8.54279651e+01  1.30e-10 2.27e-13  1.38e-05     0s
  17   8.59398861e+01  8.56816980e+01  6.06e-11 2.27e-13  4.39e-06     0s
  18   8.58593356e+01  8.58197580e+01  4.41e-10 4.55e-13  6.73e-07     0s
  19   8.58558806e+01  8.58505558e+01  4.59e-10 4.55e-13  9.06e-08     0s
  20   8.58555629e+01  8.58555041e+01  5.82e-10 4.55e-13  1.00e-09     0s
  21   8.58555451e+01  8.58555451e+01  1.18e-10 4.55e-13  1.50e-15     0s

Barrier solved model in 21 iterations and 0.42 seconds (0.36 work units)
Optimal objective 8.58555451e+01

Crossover log...

    4324 DPushes remaining with DInf 0.0000000e+00                 0s
       0 DPushes remaining with DInf 0.0000000e+00                 0s

    1131 PPushes remaining with PInf 0.0000000e+00                 0s
       0 PPushes remaining with PInf 0.0000000e+00                 0s

  Push phase complete: Pinf 0.0000000e+00, Dinf 1.4019593e-13      0s

Iteration    Objective       Primal Inf.    Dual Inf.      Time
    1157    8.5855545e+01   0.000000e+00   0.000000e+00      1s

Use crossover to convert LP symmetric solution to basic solution...
Crossover log...

     925 PPushes remaining with PInf 0.0000000e+00                 1s
       0 PPushes remaining with PInf 0.0000000e+00                 1s

  Push phase complete: Pinf 0.0000000e+00, Dinf 1.1638793e-13      1s

Iteration    Objective       Primal Inf.    Dual Inf.      Time
    2085    8.5855545e+01   0.000000e+00   0.000000e+00      1s

Solved in 2085 iterations and 0.64 seconds (0.49 work units)
Optimal objective  8.585554513e+01
